NAME : LPS-n18-m149
COMMENT : (Lartu-Peter-Santi Plot, instance 6149 out of 39200. 18 customers.)
TYPE : CVRP
DIMENSION : 18
EDGE_WEIGHT_TYPE : EUC_2D
CAPACITY : 150
NODE_COORD_SECTION
 1 70 74
 2 45 84
 3 8 77
 4 82 97
 5 68 12
 6 23 22
 7 30 25
 8 75 26
 9 83 42
 10 53 17
 11 74 85
 12 31 56
 13 79 88
 14 1 36
 15 28 45
 16 28 47
 17 10 84
 18 76 37
DEMAND_SECTION
1 0
2 140
3 110
4 117
5 97
6 26
7 75
8 90
9 64
10 45
11 99
12 97
13 6
14 19
15 150
16 126
17 107
18 67
DEPOT_SECTION
 1
 -1
EOF
